 &control
    calculation     = 'scf'
    prefix          = 'bn'
    restart_mode    = 'from_scratch'
    wf_collect      = .true.
    pseudo_dir      = '../pp'
    outdir          = './'
    tprnfor         = .true.
    tstress         = .true.
 /
 &system
    ibrav           = 2
    celldm(1)       = 6.832682257 ! 3.6157 Ang exp
    nat             = 2
    ntyp            = 2
    ecutwfc         = 100
    noncolin        =.true.
    lspinorb        =.true.
 /
 &electrons
    diagonalization = 'david'
    mixing_beta     = 0.7
    conv_thr        = 1.0d-13
 /
ATOMIC_SPECIES
  B  10.811   B-PBE.upf
  N  14.0067  N-PBE.upf
ATOMIC_POSITIONS alat
  B   0.00  0.00  0.00
  N   0.25  0.25  0.25
K_POINTS automatic
20 20 20 0 0 0
